(set-logic QF_LRA)
(declare-fun X0 () Real )
(declare-fun Y0 () Real )
(declare-fun X1 () Real )
(declare-fun Y1 () Real )
(declare-fun X2 () Real )
(declare-fun Y2 () Real )
(declare-fun X3 () Real )
(declare-fun Y3 () Real )
(declare-fun X4 () Real )
(declare-fun Y4 () Real )
(declare-fun X5 () Real )
(declare-fun Y5 () Real )
(declare-fun Z () Real )
(declare-fun k () Real )
(assert (let
(( $goal (>= Z k) ))
(let
((
$phi ( and 
( or ( <= ( + X0 100 ) X1 )  ( <= ( + X1 9 ) X0 )  ( <= ( + Y0 10 ) Y1 )  ( <= ( + Y1 80 ) Y0 )  )
( or ( <= ( + X0 100 ) X2 )  ( <= ( + X2 41 ) X0 )  ( <= ( + Y0 10 ) Y2 )  ( <= ( + Y2 99 ) Y0 )  )
( or ( <= ( + X0 100 ) X3 )  ( <= ( + X3 94 ) X0 )  ( <= ( + Y0 10 ) Y3 )  ( <= ( + Y3 55 ) Y0 )  )
( or ( <= ( + X0 100 ) X4 )  ( <= ( + X4 46 ) X0 )  ( <= ( + Y0 10 ) Y4 )  ( <= ( + Y4 20 ) Y0 )  )
( or ( <= ( + X0 100 ) X5 )  ( <= ( + X5 4 ) X0 )  ( <= ( + Y0 10 ) Y5 )  ( <= ( + Y5 20 ) Y0 )  )
( or ( <= ( + X1 9 ) X2 )  ( <= ( + X2 41 ) X1 )  ( <= ( + Y1 80 ) Y2 )  ( <= ( + Y2 99 ) Y1 )  )
( or ( <= ( + X1 9 ) X3 )  ( <= ( + X3 94 ) X1 )  ( <= ( + Y1 80 ) Y3 )  ( <= ( + Y3 55 ) Y1 )  )
( or ( <= ( + X1 9 ) X4 )  ( <= ( + X4 46 ) X1 )  ( <= ( + Y1 80 ) Y4 )  ( <= ( + Y4 20 ) Y1 )  )
( or ( <= ( + X1 9 ) X5 )  ( <= ( + X5 4 ) X1 )  ( <= ( + Y1 80 ) Y5 )  ( <= ( + Y5 20 ) Y1 )  )
( or ( <= ( + X2 41 ) X3 )  ( <= ( + X3 94 ) X2 )  ( <= ( + Y2 99 ) Y3 )  ( <= ( + Y3 55 ) Y2 )  )
( or ( <= ( + X2 41 ) X4 )  ( <= ( + X4 46 ) X2 )  ( <= ( + Y2 99 ) Y4 )  ( <= ( + Y4 20 ) Y2 )  )
( or ( <= ( + X2 41 ) X5 )  ( <= ( + X5 4 ) X2 )  ( <= ( + Y2 99 ) Y5 )  ( <= ( + Y5 20 ) Y2 )  )
( or ( <= ( + X3 94 ) X4 )  ( <= ( + X4 46 ) X3 )  ( <= ( + Y3 55 ) Y4 )  ( <= ( + Y4 20 ) Y3 )  )
( or ( <= ( + X3 94 ) X5 )  ( <= ( + X5 4 ) X3 )  ( <= ( + Y3 55 ) Y5 )  ( <= ( + Y5 20 ) Y3 )  )
( or ( <= ( + X4 46 ) X5 )  ( <= ( + X5 4 ) X4 )  ( <= ( + Y4 20 ) Y5 )  ( <= ( + Y5 20 ) Y4 )  )
( >= X0 0)
( <= ( + X0 100) Z)
( >= Y0 0)
( <= ( + Y0 10 ) 122)
( >= X1 0)
( <= ( + X1 9) Z)
( >= Y1 0)
( <= ( + Y1 80 ) 122)
( >= X2 0)
( <= ( + X2 41) Z)
( >= Y2 0)
( <= ( + Y2 99 ) 122)
( >= X3 0)
( <= ( + X3 94) Z)
( >= Y3 0)
( <= ( + Y3 55 ) 122)
( >= X4 0)
( <= ( + X4 46) Z)
( >= Y4 0)
( <= ( + Y4 20 ) 122)
( >= X5 0)
( <= ( + X5 4) Z)
( >= Y5 0)
( <= ( + Y5 20 ) 122)
) )
)(=> $phi $goal))))